networks/zoo_28_37/zoo_28_37-lower.sol
<?xml version = "1.0" encoding="UTF-8" standalone="yes"?>
<CPLEXSolution version="1.2">
 <header
   problemName="networks/zoo_28_37/zoo_28_37-lower.lp"
   solutionName="incumbent"
   solutionIndex="-1"
   objectiveValue="14"
   solutionTypeValue="3"
   solutionTypeString="primal"
   solutionStatusValue="101"
   solutionStatusString="integer optimal solution"
   solutionMethodString="mip"
   primalFeasible="1"
   dualFeasible="1"
   MIPNodes="0"
   MIPIterations="0"
   writeLevel="3"/>
 <quality
   epInt="1.0000000000000001e-05"
   epRHS="9.9999999999999995e-07"
   maxIntInfeas="0"
   maxPrimalInfeas="0"
   maxX="1"
   maxSlack="1"/>
 <variables>
  <variable name="Y(1,1)" index="0" value="1"/>
  <variable name="Y(2,2)" index="29" value="1"/>
  <variable name="Y(3,5)" index="60" value="1"/>
  <variable name="Y(4,7)" index="90" value="1"/>
  <variable name="Y(5,10)" index="121" value="1"/>
  <variable name="Y(6,13)" index="152" value="1"/>
  <variable name="Y(7,14)" index="181" value="1"/>
  <variable name="Y(12,3)" index="310" value="1"/>
  <variable name="Y(15,11)" index="402" value="1"/>
  <variable name="Y(21,4)" index="563" value="1"/>
  <variable name="Y(23,6)" index="621" value="1"/>
  <variable name="Y(24,8)" index="651" value="1"/>
  <variable name="Y(25,9)" index="680" value="1"/>
  <variable name="Y(28,12)" index="767" value="1"/>
  <variable name="X(1,15,1)" index="1036" value="1"/>
  <variable name="X(2,16,2)" index="1074" value="1"/>
  <variable name="X(3,7,1)" index="1110" value="1"/>
  <variable name="X(3,17,12)" index="1158" value="1"/>
  <variable name="X(4,7,8)" index="1191" value="1"/>
  <variable name="X(4,18,21)" index="1241" value="1"/>
  <variable name="X(5,8,10)" index="1267" value="1"/>
  <variable name="X(5,19,3)" index="1297" value="1"/>
  <variable name="X(6,20,23)" index="1354" value="1"/>
  <variable name="X(7,1,1)" index="1369" value="1"/>
  <variable name="X(7,2,2)" index="1407" value="1"/>
  <variable name="X(7,3,12)" index="1454" value="1"/>
  <variable name="X(7,4,21)" index="1500" value="1"/>
  <variable name="X(7,6,23)" index="1539" value="1"/>
  <variable name="X(7,8,3)" index="1556" value="1"/>
  <variable name="X(7,9,25)" index="1615" value="1"/>
  <variable name="X(7,10,5)" index="1632" value="1"/>
  <variable name="X(7,11,15)" index="1679" value="1"/>
  <variable name="X(7,12,28)" index="1729" value="1"/>
  <variable name="X(7,21,4)" index="1742" value="1"/>
  <variable name="X(8,5,3)" index="1778" value="1"/>
  <variable name="X(8,7,10)" index="1822" value="1"/>
  <variable name="X(8,13,6)" index="1855" value="1"/>
  <variable name="X(8,14,7)" index="1893" value="1"/>
  <variable name="X(8,22,24)" index="1947" value="1"/>
  <variable name="X(9,23,25)" index="1985" value="1"/>
  <variable name="X(10,24,5)" index="2002" value="1"/>
  <variable name="X(11,25,15)" index="2049" value="1"/>
  <variable name="X(12,26,28)" index="2099" value="1"/>
  <variable name="X(13,8,32)" index="2140" value="1"/>
  <variable name="X(13,27,6)" index="2151" value="1"/>
  <variable name="X(14,28,7)" index="2189" value="1"/>
 </variables>
</CPLEXSolution>
